#######################
Slurm job id: 17497813_30
Running on machine: p70
Running cmd: /nfs/shared/static-builds/gurobi1003 SOFTMEMLIMIT=125 MIPFocus=2 Presolve=1 TimeLimit=500 seed=19 /nfs/models/miplib2010/k16x240.mps.bz2
#######################
Set parameter TimeLimit to value 500
Set parameter SoftMemLimit to value 125
Set parameter MIPFocus to value 2
Set parameter LogFile to value 1003-MIPFocus2-Presolve1-TimeLimit500-k16x240-9.log
Set parameter Presolve to value 1
Set parameter Seed to value 19
Using license file /opt/gurobi/gurobi.lic

Gurobi Optimizer version 10.0.3 build v10.0.3rc0 (linux64)
Copyright (c) 2023, Gurobi Optimization, LLC

Read MPS format model from file /nfs/models/miplib2010/k16x240.mps.bz2
Reading time = 0.00 seconds
k16x240: 256 rows, 480 columns, 960 nonzeros

CPU model: Intel(R) Xeon(R) E-2388G CPU @ 3.20GHz, instruction set [SSE2|AVX|AVX2|AVX512]
Thread count: 8 physical cores, 16 logical processors, using up to 16 threads

Optimize a model with 256 rows, 480 columns and 960 nonzeros
Model fingerprint: 0x4e80885f
Variable types: 240 continuous, 240 integer (240 binary)
Coefficient statistics:
  Matrix range     [1e+00, 1e+03]
  Objective range  [1e+00, 1e+03]
  Bounds range     [1e+00, 1e+03]
  RHS range        [4e+00, 4e+02]
Found heuristic solution: objective 17517.000000
Presolve time: 0.00s
Presolved: 256 rows, 480 columns, 960 nonzeros
Variable types: 240 continuous, 240 integer (240 binary)

Root relaxation: objective 2.769838e+03, 51 iterations, 0.00 seconds (0.00 work units)

    Nodes    |    Current Node    |     Objective Bounds      |     Work
 Expl Unexpl |  Obj  Depth IntInf | Incumbent    BestBd   Gap | It/Node Time

     0     0 2769.83800    0   14 17517.0000 2769.83800  84.2%     -    0s
H    0     0                    11359.000000 2769.83800  75.6%     -    0s
H    0     0                    11195.000000 2769.83800  75.3%     -    0s
H    0     0                    11074.000000 8116.87580  26.7%     -    0s
     0     0 8116.87580    0   26 11074.0000 8116.87580  26.7%     -    0s
H    0     0                    10916.000000 8116.87580  25.6%     -    0s
H    0     0                    10826.000000 8116.87580  25.0%     -    0s
     0     0 8588.30479    0   25 10826.0000 8588.30479  20.7%     -    0s
     0     0 8613.92228    0   22 10826.0000 8613.92228  20.4%     -    0s
     0     0 8715.02413    0   17 10826.0000 8715.02413  19.5%     -    0s
H    0     0                    10748.000000 8715.02413  18.9%     -    0s
H    0     0                    10711.000000 8820.62566  17.6%     -    0s
     0     0 8820.62566    0   19 10711.0000 8820.62566  17.6%     -    0s
     0     0 8843.05202    0   31 10711.0000 8843.05202  17.4%     -    0s
     0     0 8855.28396    0   33 10711.0000 8855.28396  17.3%     -    0s
     0     0 8857.29129    0   36 10711.0000 8857.29129  17.3%     -    0s
     0     0 9010.47741    0   42 10711.0000 9010.47741  15.9%     -    0s
     0     0 9038.16319    0   41 10711.0000 9038.16319  15.6%     -    0s
     0     0 9067.41875    0   45 10711.0000 9067.41875  15.3%     -    0s
     0     0 9068.26986    0   40 10711.0000 9068.26986  15.3%     -    0s
     0     0 9098.25868    0   35 10711.0000 9098.25868  15.1%     -    0s
     0     0 9101.85432    0   37 10711.0000 9101.85432  15.0%     -    0s
     0     0 9146.32027    0   34 10711.0000 9146.32027  14.6%     -    0s
     0     0 9146.32027    0   34 10711.0000 9146.32027  14.6%     -    0s
     0     2 9146.34786    0   34 10711.0000 9146.34786  14.6%     -    0s
H   64    73                    10681.000000 9249.28139  13.4%  54.0    0s
H 1557  1129                    10678.000000 9468.83196  11.3%  19.2    0s
H 1557  1072                    10674.000000 9468.83196  11.3%  19.2    0s
 31036 12199 10442.3423   38    5 10674.0000 10044.5705  5.90%  23.7    5s
 82038 20294 10565.1796   35   21 10674.0000 10241.0718  4.06%  23.7   10s
 126264 18885 10548.5740   43   14 10674.0000 10363.8818  2.91%  23.8   15s
 173714  5334     cutoff   33      10674.0000 10528.6298  1.36%  23.3   20s

Cutting planes:
  Gomory: 1
  Lift-and-project: 13
  Cover: 83
  Implied bound: 34
  MIR: 235
  Flow cover: 291
  Flow path: 39
  Inf proof: 3
  Zero half: 10
  Network: 41
  Relax-and-lift: 1

Explored 183062 nodes (4143944 simplex iterations) in 20.62 seconds (25.27 work units)
Thread count was 16 (of 16 available processors)

Solution count 10: 10674 10678 10681 ... 11359

Optimal solution found (tolerance 1.00e-04)
Best objective 1.067400000000e+04, best bound 1.067400000000e+04, gap 0.0000%
